NAME : rand435516
COMMENT: random generated with id 435516
TYPE : TSP
DIMENSION : 6
EDGE_WEIGHT_TYPE : EUC_2D
NODE_COORD_SECTION
1 0.310238 4.952065
2 0.963926 4.853507
3 3.218109 1.750019
4 1.577335 0.047499
5 2.606167 0.529991
6 3.359471 4.742587
EOF
